cliques=[{0,3,7,8,29,35,40,55,65},{1,4,11,15,22,45,57,58,60,62},{0,2,1,6,29,30,31,32,33,54,61,64},{3,7,9,21,25,36,38,46,49,69},{1,4,11,15,22,45,57,58,60,62},{5,13,34,37,43,47,51,56,63,66},{0,2,1,6,4,30,31,33,57,61,60,64},{3,7,9,21,25,36,38,46,49,69},{0,5,8,18,29,35,40,65},{3,7,9,21,25,36,38,46,49,69},{3,7,9,10,21,25,36,38,69},{1,4,11,15,22,45,58,57,60,62},{12,16,17,20,19,27,41},{5,13,34,37,43,47,51,56,63,66},{1,4,11,14,15,58,60,62,67,68},{1,4,11,15,22,45,58,57,60,62},{12,16,17,20,19,27,41},{12,17,16,19,20,34,41,56},{0,5,8,18,29,35,40,65},{12,17,16,19,20,34,41,56},{12,16,17,20,19,27,41},{3,7,9,21,25,36,38,46,49,69},{1,4,11,15,22,45,58,57,60,62},{4,11,15,14,23,58,60,62,67,68},{1,11,24,22,45,57,58,62},{3,7,9,21,25,36,38,46,49,69},{5,8,13,18,26,35,63},{12,16,17,20,19,27,41},{12,16,20,27,28,48},{0,3,7,8,29,35,40,55,65},{0,2,6,30,31,29,32,33,54,59,61,64},{0,2,6,31,30,29,32,33,54,59,61,64},{0,1,2,6,30,31,29,32,33,54,61,64},{0,1,2,6,4,30,31,33,57,61,60,64},{13,34,37,42,43,47,51,56,63,66},{0,5,8,18,29,35,40,65},{3,7,9,21,25,36,38,46,49,69},{5,13,34,37,43,47,51,56,63,66},{3,7,9,21,25,36,38,46,49,69},{12,16,20,28,39,48},{0,7,8,18,29,35,40,55,65},{12,16,17,20,19,27,41},{13,34,37,42,43,47,51,56,63,66},{13,34,37,43,42,47,51,56,63,66},{3,7,9,21,25,44,46,49,65},{1,4,11,15,22,45,58,57,60,62},{3,7,9,21,25,36,38,46,49,69},{13,34,37,43,42,47,51,56,63,66},{12,16,20,28,39,48},{3,7,9,21,25,36,38,46,49,69},{17,16,19,34,41,42,50,56,66},{5,13,34,37,43,47,51,56,63,66},{11,15,23,22,45,52,58,62},{11,15,14,23,53,52,62},{0,1,2,6,30,31,29,32,33,54,61,64},{0,2,3,7,9,10,36,55},{13,34,37,42,43,47,51,56,63,66},{1,4,11,15,22,45,57,58,60,62},{1,4,11,15,22,45,58,57,60,62},{0,2,6,29,30,31,32,33,54,59,61,64},{1,4,11,15,22,45,57,58,60,62},{0,1,2,6,4,30,31,33,57,61,60,64},{1,4,11,15,22,45,58,57,60,62},{5,13,34,37,43,47,51,56,63,66},{0,1,2,6,4,30,31,33,57,61,60,64},{3,7,9,21,25,36,46,49,65},{13,34,37,42,43,47,51,56,63,66},{1,4,11,14,15,58,60,62,67,68},{1,4,11,14,15,58,60,62,67,68},{3,7,9,21,25,36,38,46,49,69}];
nr_cliques=70;
